
Gurobi 7.5.2 (mac64, Python) logging started Fri Feb 23 12:22:52 2018

Academic license - for non-commercial use only

Gurobi 7.5.2 (mac64, Python) logging started Fri Feb 23 14:03:05 2018

Academic license - for non-commercial use only

Gurobi 7.5.2 (mac64, Python) logging started Fri Feb 23 14:06:17 2018

Academic license - for non-commercial use only

Gurobi 7.5.2 (mac64, Python) logging started Fri Feb 23 14:08:52 2018

Academic license - for non-commercial use only

Gurobi 7.5.2 (mac64, Python) logging started Fri Feb 23 14:11:49 2018

Academic license - for non-commercial use only

Gurobi 7.5.2 (mac64, Python) logging started Fri Feb 23 14:43:05 2018

Academic license - for non-commercial use only

Gurobi 7.5.2 (mac64, Python) logging started Fri Feb 23 15:22:09 2018

Academic license - for non-commercial use only

Gurobi 7.5.2 (mac64, Python) logging started Sat Feb 24 23:27:56 2018

Academic license - for non-commercial use only

Gurobi 7.5.2 (mac64, Python) logging started Tue May  8 16:02:22 2018

Academic license - for non-commercial use only

Gurobi 7.5.2 (mac64, Python) logging started Tue May  8 16:37:17 2018

Academic license - for non-commercial use only

Gurobi 7.5.2 (mac64, Python) logging started Tue May  8 16:40:56 2018

Academic license - for non-commercial use only

Gurobi 7.5.2 (mac64, Python) logging started Tue May  8 23:08:14 2018

Academic license - for non-commercial use only

Gurobi 7.5.2 (mac64, Python) logging started Tue May  8 23:22:21 2018

Academic license - for non-commercial use only

Gurobi 7.5.2 (mac64, Python) logging started Tue May  8 23:24:49 2018

Academic license - for non-commercial use only

Gurobi 7.5.2 (mac64, Python) logging started Tue May  8 23:29:06 2018

Academic license - for non-commercial use only

Gurobi 7.5.2 (mac64, Python) logging started Tue May  8 23:33:36 2018

Academic license - for non-commercial use only

Gurobi 7.5.2 (mac64, Python) logging started Wed May  9 01:28:48 2018

Academic license - for non-commercial use only

Gurobi 7.5.2 (mac64, Python) logging started Wed May  9 01:38:35 2018

Academic license - for non-commercial use only

Gurobi 7.5.2 (mac64, Python) logging started Wed May  9 01:51:35 2018

Academic license - for non-commercial use only

Gurobi 7.5.2 (mac64, Python) logging started Wed May  9 02:32:14 2018

Academic license - for non-commercial use only
